min: c;

c = 3.6284778910875 * u1_t7_h4 + 3.25955933157492 * u1_t7_h5 + 3.65580697351066 * u1_t5_h6 + 3.65580697351066 * u1_t7_h6 + 4.03997505743875 * u1_t5_h7 + 4.03997505743875 * u1_t7_h7 + 4.03997505743875 * u1_t9_h7 + 5.78200708237994 * u1_t5_h8 + 5.78200708237994 * u1_t7_h8 + 5.78200708237994 * u1_t9_h8 + 5.78200708237994 * u1_t10_h8 + 4.5195735669219 * u1_t5_h9 + 4.5195735669219 * u1_t7_h9 + 4.5195735669219 * u1_t9_h9 + 4.5195735669219 * u1_t10_h9 + 5.87467272789969 * u1_t5_h10 + 5.87467272789969 * u1_t7_h10 + 5.87467272789969 * u1_t9_h10 + 5.87467272789969 * u1_t10_h10 + 4.23421487277965 * u1_t5_h11 + 4.23421487277965 * u1_t9_h11 + 4.23421487277965 * u1_t10_h11 + 5.78214568118539 * u1_t4_h12 + 5.78214568118539 * u1_t5_h12 + 5.78214568118539 * u1_t8_h12 + 5.78214568118539 * u1_t9_h12 + 5.78214568118539 * u1_t10_h12 + 4.08040834897188 * u1_t4_h13 + 4.08040834897188 * u1_t8_h13 + 4.08040834897188 * u1_t9_h13 + 4.08040834897188 * u1_t10_h13 + 5.3294951095193 * u1_t4_h14 + 5.3294951095193 * u1_t8_h14 + 5.3294951095193 * u1_t9_h14 + 5.3294951095193 * u1_t10_h14 + 6.63399989722173 * u1_t4_h15 + 6.63399989722173 * u1_t8_h15 + 5.95938014570468 * u1_t4_h16 + 5.95938014570468 * u1_t8_h16 + 6.67148994651973 * u1_t4_h17 + 6.67148994651973 * u1_t8_h17 + 6.89190265563253 * u1_t2_h18 + 6.89190265563253 * u1_t4_h18 + 6.89190265563253 * u1_t6_h18 + 6.89190265563253 * u1_t8_h18 + 5.7594990002889 * u1_t2_h19 + 5.7594990002889 * u1_t3_h19 + 5.7594990002889 * u1_t4_h19 + 5.7594990002889 * u1_t6_h19 + 5.67961350386613 * u1_t1_h20 + 5.67961350386613 * u1_t2_h20 + 5.67961350386613 * u1_t3_h20 + 5.67961350386613 * u1_t4_h20 + 5.67961350386613 * u1_t6_h20 + 5.37976538528396 * u1_t1_h21 + 5.37976538528396 * u1_t2_h21 + 5.37976538528396 * u1_t3_h21 + 6.00384698407837 * u1_t1_h22 + 6.00384698407837 * u1_t2_h22 + 5.1866562335595 * u1_t1_h23 + 5.1866562335595 * u1_t2_h23;
0 <= u1_t1_h20 <= 1;
0 <= u1_t1_h21 <= 1;
0 <= u1_t1_h22 <= 1;
0 <= u1_t1_h23 <= 1;
u1_t1_h20 + u1_t1_h21 + u1_t1_h22 + u1_t1_h23 = 1;
0 <= u1_t2_h18 <= 1;
0 <= u1_t2_h19 <= 1;
0 <= u1_t2_h20 <= 1;
0 <= u1_t2_h21 <= 1;
0 <= u1_t2_h22 <= 1;
0 <= u1_t2_h23 <= 1;
u1_t2_h18 + u1_t2_h19 + u1_t2_h20 + u1_t2_h21 + u1_t2_h22 + u1_t2_h23 = 2;
0 <= u1_t3_h19 <= 1;
0 <= u1_t3_h20 <= 1;
0 <= u1_t3_h21 <= 1;
u1_t3_h19 + u1_t3_h20 + u1_t3_h21 = 1;
0 <= u1_t4_h12 <= 1;
0 <= u1_t4_h13 <= 1;
0 <= u1_t4_h14 <= 1;
0 <= u1_t4_h15 <= 1;
0 <= u1_t4_h16 <= 1;
0 <= u1_t4_h17 <= 1;
0 <= u1_t4_h18 <= 1;
0 <= u1_t4_h19 <= 1;
0 <= u1_t4_h20 <= 1;
u1_t4_h12 + u1_t4_h13 + u1_t4_h14 + u1_t4_h15 + u1_t4_h16 + u1_t4_h17 + u1_t4_h18 + u1_t4_h19 + u1_t4_h20 = 3;
0 <= u1_t5_h6 <= 1;
0 <= u1_t5_h7 <= 1;
0 <= u1_t5_h8 <= 1;
0 <= u1_t5_h9 <= 1;
0 <= u1_t5_h10 <= 1;
0 <= u1_t5_h11 <= 1;
0 <= u1_t5_h12 <= 1;
u1_t5_h6 + u1_t5_h7 + u1_t5_h8 + u1_t5_h9 + u1_t5_h10 + u1_t5_h11 + u1_t5_h12 = 3;
0 <= u1_t6_h18 <= 1;
0 <= u1_t6_h19 <= 1;
0 <= u1_t6_h20 <= 1;
u1_t6_h18 + u1_t6_h19 + u1_t6_h20 = 2;
0 <= u1_t7_h4 <= 1;
0 <= u1_t7_h5 <= 1;
0 <= u1_t7_h6 <= 1;
0 <= u1_t7_h7 <= 1;
0 <= u1_t7_h8 <= 1;
0 <= u1_t7_h9 <= 1;
0 <= u1_t7_h10 <= 1;
u1_t7_h4 + u1_t7_h5 + u1_t7_h6 + u1_t7_h7 + u1_t7_h8 + u1_t7_h9 + u1_t7_h10 = 2;
0 <= u1_t8_h12 <= 1;
0 <= u1_t8_h13 <= 1;
0 <= u1_t8_h14 <= 1;
0 <= u1_t8_h15 <= 1;
0 <= u1_t8_h16 <= 1;
0 <= u1_t8_h17 <= 1;
0 <= u1_t8_h18 <= 1;
u1_t8_h12 + u1_t8_h13 + u1_t8_h14 + u1_t8_h15 + u1_t8_h16 + u1_t8_h17 + u1_t8_h18 = 2;
0 <= u1_t9_h7 <= 1;
0 <= u1_t9_h8 <= 1;
0 <= u1_t9_h9 <= 1;
0 <= u1_t9_h10 <= 1;
0 <= u1_t9_h11 <= 1;
0 <= u1_t9_h12 <= 1;
0 <= u1_t9_h13 <= 1;
0 <= u1_t9_h14 <= 1;
u1_t9_h7 + u1_t9_h8 + u1_t9_h9 + u1_t9_h10 + u1_t9_h11 + u1_t9_h12 + u1_t9_h13 + u1_t9_h14 = 3;
0 <= u1_t10_h8 <= 1;
0 <= u1_t10_h9 <= 1;
0 <= u1_t10_h10 <= 1;
0 <= u1_t10_h11 <= 1;
0 <= u1_t10_h12 <= 1;
0 <= u1_t10_h13 <= 1;
0 <= u1_t10_h14 <= 1;
u1_t10_h8 + u1_t10_h9 + u1_t10_h10 + u1_t10_h11 + u1_t10_h12 + u1_t10_h13 + u1_t10_h14 = 3;
